N = 3;

cell_type = array2d(1..N, 1..N,
[
  2, 1, 1,
  1, 2, 1,
  1, 1, 0
]);

horizontal_sum = array2d(1..N, 1..N,
[
  8, -1, -1,
  -1, 6, -1,
  -1, -1, -1
]);

vertical_sum = array2d(1..N, 1..N,
[
  10, -1, -1,
  -1, 5, -1,
  -1, -1, -1
]);
